Minimize
  obj: x0 + x1 + x2 + x3 + x4 + x5 + x6 + x7 + x8 + x9 + x10

Subject To
  c0: x1 + x2 + x3 + x4 + x6 + x7 + x8 + x9 + x10 = 254
  c1: x1 + x5 + x6 + x7 + x8 + x10 = 32
  c2: x0 + x1 + x2 + x3 + x5 + x7 + x8 + x10 = 71
  c3: x0 + x1 + x5 + x7 = 46
  c4: x1 + x3 + x6 + x7 + x9 = 232
  c5: x2 + x3 + x7 + x8 + x10 = 38
  c6: x0 + x2 + x3 + x5 + x8 + x10 = 56
  c7: x1 + x4 + x7 + x10 = 33
  c8: x1 + x4 + x8 + x10 = 21

Bounds
  x0 >= 0
  x1 >= 0
  x2 >= 0
  x3 >= 0
  x4 >= 0
  x5 >= 0
  x6 >= 0
  x7 >= 0
  x8 >= 0
  x9 >= 0
  x10 >= 0

Generals
  x0 x1 x2 x3 x4 x5 x6 x7 x8 x9 x10

End
